c turning on binary mode checking
c parsing input formula with 259840 variables and 1039934 clauses
c finished parsing, read 3017559 bytes from proof file
c detected empty clause; start verification via backward checking
c 3282 of 1039934 clauses in core                            
c 1070 of 122395 lemmas in core using 26266 resolution steps
c 0 RAT lemmas in core; 148 redundant literals in core lemmas
s VERIFIED
c verification time: 1.245 seconds
